c strEdges: 189  randomEdges: 441 
c degrees:  2  3 
c girth: 10 max: 8.032766  
c Hgirth mixed MAXCUT instance
c generated from an undirected graph
c to solve unweighted MaxCut
p cnf 140 1260
106 122 0
-106 -122 0
106 87 0
-106 -87 0
106 103 0
-106 -103 0
26 1 0
-26 -1 0
26 40 0
-26 -40 0
26 134 0
-26 -134 0
23 16 0
-23 -16 0
23 117 0
-23 -117 0
23 13 0
-23 -13 0
93 15 0
-93 -15 0
93 28 0
-93 -28 0
93 69 0
-93 -69 0
91 50 0
-91 -50 0
91 66 0
-91 -66 0
47 64 0
-47 -64 0
47 40 0
-47 -40 0
11 27 0
-11 -27 0
11 3 0
-11 -3 0
11 24 0
-11 -24 0
45 46 0
-45 -46 0
45 102 0
-45 -102 0
45 84 0
-45 -84 0
97 12 0
-97 -12 0
97 49 0
-97 -49 0
98 54 0
-98 -54 0
98 14 0
-98 -14 0
35 100 0
-35 -100 0
35 71 0
-35 -71 0
35 51 0
-35 -51 0
70 84 0
-70 -84 0
70 37 0
-70 -37 0
30 109 0
-30 -109 0
30 118 0
-30 -118 0
30 16 0
-30 -16 0
57 118 0
-57 -118 0
57 39 0
-57 -39 0
57 50 0
-57 -50 0
33 136 0
-33 -136 0
33 27 0
-33 -27 0
101 134 0
-101 -134 0
101 20 0
-101 -20 0
101 129 0
-101 -129 0
128 140 0
-128 -140 0
128 79 0
-128 -79 0
48 66 0
-48 -66 0
48 134 0
-48 -134 0
48 4 0
-48 -4 0
120 87 0
-120 -87 0
120 54 0
-120 -54 0
120 78 0
-120 -78 0
76 6 0
-76 -6 0
76 13 0
-76 -13 0
76 136 0
-76 -136 0
72 102 0
-72 -102 0
72 109 0
-72 -109 0
72 14 0
-72 -14 0
133 55 0
-133 -55 0
133 51 0
-133 -51 0
133 65 0
-133 -65 0
104 116 0
-104 -116 0
104 82 0
-104 -82 0
104 60 0
-104 -60 0
132 112 0
-132 -112 0
132 20 0
-132 -20 0
115 113 0
-115 -113 0
115 100 0
-115 -100 0
115 49 0
-115 -49 0
44 85 0
-44 -85 0
44 31 0
-44 -31 0
44 4 0
-44 -4 0
59 41 0
-59 -41 0
59 123 0
-59 -123 0
53 71 0
-53 -71 0
53 1 0
-53 -1 0
53 102 0
-53 -102 0
17 78 0
-17 -78 0
17 62 0
-17 -62 0
17 31 0
-17 -31 0
127 121 0
-127 -121 0
127 6 0
-127 -6 0
127 113 0
-127 -113 0
80 42 0
-80 -42 0
80 21 0
-80 -21 0
80 15 0
-80 -15 0
83 10 0
-83 -10 0
83 71 0
-83 -71 0
83 41 0
-83 -41 0
34 103 0
-34 -103 0
34 79 0
-34 -79 0
34 16 0
-34 -16 0
43 69 0
-43 -69 0
43 65 0
-43 -65 0
43 96 0
-43 -96 0
67 3 0
-67 -3 0
67 21 0
-67 -21 0
67 18 0
-67 -18 0
56 90 0
-56 -90 0
56 114 0
-56 -114 0
56 64 0
-56 -64 0
73 65 0
-73 -65 0
73 19 0
-73 -19 0
73 50 0
-73 -50 0
135 21 0
-135 -21 0
135 1 0
-135 -1 0
63 14 0
-63 -14 0
63 52 0
-63 -52 0
63 116 0
-63 -116 0
29 37 0
-29 -37 0
29 69 0
-29 -69 0
68 138 0
-68 -138 0
68 36 0
-68 -36 0
68 64 0
-68 -64 0
92 28 0
-92 -28 0
92 109 0
-92 -109 0
58 117 0
-58 -117 0
58 22 0
-58 -22 0
58 78 0
-58 -78 0
99 131 0
-99 -131 0
99 25 0
-99 -25 0
99 84 0
-99 -84 0
108 123 0
-108 -123 0
108 131 0
-108 -131 0
108 86 0
-108 -86 0
125 89 0
-125 -89 0
125 121 0
-125 -121 0
7 40 0
-7 -40 0
7 19 0
-7 -19 0
94 62 0
-94 -62 0
94 12 0
-94 -12 0
5 79 0
-5 -79 0
5 27 0
-5 -27 0
5 60 0
-5 -60 0
61 51 0
-61 -51 0
61 18 0
-61 -18 0
61 138 0
-61 -138 0
111 60 0
-111 -60 0
111 90 0
-111 -90 0
77 86 0
-77 -86 0
77 140 0
-77 -140 0
77 28 0
-77 -28 0
74 39 0
-74 -39 0
74 12 0
-74 -12 0
74 42 0
-74 -42 0
126 20 0
-126 -20 0
126 41 0
-126 -41 0
8 18 0
-8 -18 0
8 85 0
-8 -85 0
8 140 0
-8 -140 0
2 24 0
-2 -24 0
2 123 0
-2 -123 0
2 54 0
-2 -54 0
32 4 0
-32 -4 0
32 46 0
-32 -46 0
32 122 0
-32 -122 0
105 82 0
-105 -82 0
105 39 0
-105 -39 0
105 137 0
-105 -137 0
107 25 0
-107 -25 0
107 82 0
-107 -82 0
107 121 0
-107 -121 0
124 22 0
-124 -22 0
124 90 0
-124 -90 0
124 10 0
-124 -10 0
75 31 0
-75 -31 0
75 114 0
-75 -114 0
75 96 0
-75 -96 0
9 13 0
-9 -13 0
9 55 0
-9 -55 0
81 114 0
-81 -114 0
81 112 0
-81 -112 0
81 113 0
-81 -113 0
88 96 0
-88 -96 0
88 137 0
-88 -137 0
88 103 0
-88 -103 0
130 129 0
-130 -129 0
130 42 0
-130 -42 0
139 52 0
-139 -52 0
139 129 0
-139 -129 0
139 55 0
-139 -55 0
119 137 0
-119 -137 0
119 3 0
-119 -3 0
95 19 0
-95 -19 0
95 24 0
-95 -24 0
95 89 0
-95 -89 0
38 49 0
-38 -49 0
38 86 0
-38 -86 0
110 36 0
-110 -36 0
110 62 0
-110 -62 0
110 37 0
-110 -37 0
94 78 0
-94 -78 0
10 131 0
-10 -131 0
101 89 0
-101 -89 0
35 99 0
-35 -99 0
97 132 0
-97 -132 0
76 69 0
-76 -69 0
53 69 0
-53 -69 0
74 22 0
-74 -22 0
29 85 0
-29 -85 0
91 74 0
-91 -74 0
23 19 0
-23 -19 0
110 19 0
-110 -19 0
139 140 0
-139 -140 0
93 119 0
-93 -119 0
104 59 0
-104 -59 0
5 109 0
-5 -109 0
47 68 0
-47 -68 0
30 18 0
-30 -18 0
120 10 0
-120 -10 0
120 112 0
-120 -112 0
11 51 0
-11 -51 0
127 51 0
-127 -51 0
2 107 0
-2 -107 0
73 31 0
-73 -31 0
68 37 0
-68 -37 0
27 28 0
-27 -28 0
80 95 0
-80 -95 0
83 109 0
-83 -109 0
105 41 0
-105 -41 0
99 16 0
-99 -16 0
72 54 0
-72 -54 0
81 138 0
-81 -138 0
133 124 0
-133 -124 0
91 78 0
-91 -78 0
83 110 0
-83 -110 0
38 4 0
-38 -4 0
83 78 0
-83 -78 0
128 111 0
-128 -111 0
104 28 0
-104 -28 0
132 15 0
-132 -15 0
118 69 0
-118 -69 0
134 55 0
-134 -55 0
127 83 0
-127 -83 0
126 55 0
-126 -55 0
6 89 0
-6 -89 0
104 119 0
-104 -119 0
101 17 0
-101 -17 0
67 123 0
-67 -123 0
23 32 0
-23 -32 0
74 134 0
-74 -134 0
59 113 0
-59 -113 0
70 136 0
-70 -136 0
19 36 0
-19 -36 0
67 25 0
-67 -25 0
87 55 0
-87 -55 0
105 3 0
-105 -3 0
126 64 0
-126 -64 0
66 69 0
-66 -69 0
5 54 0
-5 -54 0
136 79 0
-136 -79 0
125 13 0
-125 -13 0
26 92 0
-26 -92 0
88 46 0
-88 -46 0
46 85 0
-46 -85 0
115 27 0
-115 -27 0
45 65 0
-45 -65 0
45 124 0
-45 -124 0
84 86 0
-84 -86 0
81 100 0
-81 -100 0
91 55 0
-91 -55 0
91 57 0
-91 -57 0
11 74 0
-11 -74 0
99 116 0
-99 -116 0
66 65 0
-66 -65 0
98 126 0
-98 -126 0
64 112 0
-64 -112 0
34 32 0
-34 -32 0
26 77 0
-26 -77 0
101 132 0
-101 -132 0
126 86 0
-126 -86 0
107 100 0
-107 -100 0
80 75 0
-80 -75 0
116 89 0
-116 -89 0
85 52 0
-85 -52 0
102 86 0
-102 -86 0
12 52 0
-12 -52 0
91 90 0
-91 -90 0
100 103 0
-100 -103 0
3 28 0
-3 -28 0
72 40 0
-72 -40 0
118 79 0
-118 -79 0
132 53 0
-132 -53 0
119 46 0
-119 -46 0
97 22 0
-97 -22 0
34 87 0
-34 -87 0
91 81 0
-91 -81 0
107 19 0
-107 -19 0
104 118 0
-104 -118 0
30 76 0
-30 -76 0
7 75 0
-7 -75 0
106 29 0
-106 -29 0
99 22 0
-99 -22 0
99 123 0
-99 -123 0
46 82 0
-46 -82 0
55 71 0
-55 -71 0
53 15 0
-53 -15 0
128 34 0
-128 -34 0
64 82 0
-64 -82 0
58 54 0
-58 -54 0
132 7 0
-132 -7 0
29 13 0
-29 -13 0
108 8 0
-108 -8 0
72 56 0
-72 -56 0
114 96 0
-114 -96 0
6 51 0
-6 -51 0
139 49 0
-139 -49 0
91 32 0
-91 -32 0
91 100 0
-91 -100 0
124 114 0
-124 -114 0
3 138 0
-3 -138 0
34 7 0
-34 -7 0
119 89 0
-119 -89 0
85 36 0
-85 -36 0
45 80 0
-45 -80 0
98 62 0
-98 -62 0
33 123 0
-33 -123 0
83 116 0
-83 -116 0
38 46 0
-38 -46 0
106 75 0
-106 -75 0
128 20 0
-128 -20 0
71 89 0
-71 -89 0
17 121 0
-17 -121 0
2 121 0
-2 -121 0
16 123 0
-16 -123 0
56 52 0
-56 -52 0
12 82 0
-12 -82 0
99 122 0
-99 -122 0
131 22 0
-131 -22 0
28 82 0
-28 -82 0
32 138 0
-32 -138 0
79 18 0
-79 -18 0
127 131 0
-127 -131 0
134 40 0
-134 -40 0
133 29 0
-133 -29 0
30 22 0
-30 -22 0
111 18 0
-111 -18 0
7 105 0
-7 -105 0
98 109 0
-98 -109 0
97 19 0
-97 -19 0
115 138 0
-115 -138 0
135 49 0
-135 -49 0
64 89 0
-64 -89 0
94 5 0
-94 -5 0
53 110 0
-53 -110 0
57 73 0
-57 -73 0
34 114 0
-34 -114 0
125 124 0
-125 -124 0
53 32 0
-53 -32 0
35 15 0
-35 -15 0
83 14 0
-83 -14 0
88 22 0
-88 -22 0
101 118 0
-101 -118 0
74 2 0
-74 -2 0
47 27 0
-47 -27 0
8 13 0
-8 -13 0
47 9 0
-47 -9 0
91 87 0
-91 -87 0
61 65 0
-61 -65 0
83 27 0
-83 -27 0
14 96 0
-14 -96 0
125 19 0
-125 -19 0
1 14 0
-1 -14 0
134 31 0
-134 -31 0
59 83 0
-59 -83 0
58 89 0
-58 -89 0
47 137 0
-47 -137 0
43 54 0
-43 -54 0
15 87 0
-15 -87 0
132 84 0
-132 -84 0
27 13 0
-27 -13 0
43 110 0
-43 -110 0
11 28 0
-11 -28 0
8 103 0
-8 -103 0
33 126 0
-33 -126 0
56 87 0
-56 -87 0
81 1 0
-81 -1 0
54 49 0
-54 -49 0
92 19 0
-92 -19 0
98 29 0
-98 -29 0
8 40 0
-8 -40 0
42 103 0
-42 -103 0
93 71 0
-93 -71 0
111 8 0
-111 -8 0
104 73 0
-104 -73 0
44 87 0
-44 -87 0
107 3 0
-107 -3 0
115 3 0
-115 -3 0
30 71 0
-30 -71 0
77 103 0
-77 -103 0
56 77 0
-56 -77 0
101 117 0
-101 -117 0
16 112 0
-16 -112 0
128 127 0
-128 -127 0
133 13 0
-133 -13 0
80 82 0
-80 -82 0
100 84 0
-100 -84 0
80 31 0
-80 -31 0
11 109 0
-11 -109 0
127 54 0
-127 -54 0
139 38 0
-139 -38 0
85 20 0
-85 -20 0
6 113 0
-6 -113 0
27 109 0
-27 -109 0
41 82 0
-41 -82 0
99 10 0
-99 -10 0
102 19 0
-102 -19 0
53 56 0
-53 -56 0
32 123 0
-32 -123 0
120 88 0
-120 -88 0
43 9 0
-43 -9 0
130 78 0
-130 -78 0
74 40 0
-74 -40 0
108 116 0
-108 -116 0
67 90 0
-67 -90 0
117 24 0
-117 -24 0
17 99 0
-17 -99 0
5 119 0
-5 -119 0
92 123 0
-92 -123 0
54 39 0
-54 -39 0
56 15 0
-56 -15 0
120 90 0
-120 -90 0
91 51 0
-91 -51 0
48 67 0
-48 -67 0
140 31 0
-140 -31 0
45 70 0
-45 -70 0
93 7 0
-93 -7 0
121 31 0
-121 -31 0
106 51 0
-106 -51 0
107 110 0
-107 -110 0
69 123 0
-69 -123 0
35 74 0
-35 -74 0
56 24 0
-56 -24 0
57 105 0
-57 -105 0
72 119 0
-72 -119 0
59 90 0
-59 -90 0
135 66 0
-135 -66 0
66 137 0
-66 -137 0
111 89 0
-111 -89 0
48 40 0
-48 -40 0
113 90 0
-113 -90 0
88 100 0
-88 -100 0
35 80 0
-35 -80 0
91 132 0
-91 -132 0
72 103 0
-72 -103 0
81 54 0
-81 -54 0
1 114 0
-1 -114 0
81 41 0
-81 -41 0
98 113 0
-98 -113 0
7 124 0
-7 -124 0
92 27 0
-92 -27 0
106 128 0
-106 -128 0
47 33 0
-47 -33 0
53 50 0
-53 -50 0
70 10 0
-70 -10 0
64 39 0
-64 -39 0
77 90 0
-77 -90 0
72 100 0
-72 -100 0
17 92 0
-17 -92 0
100 86 0
-100 -86 0
9 139 0
-9 -139 0
134 138 0
-134 -138 0
41 3 0
-41 -3 0
27 89 0
-27 -89 0
132 24 0
-132 -24 0
47 24 0
-47 -24 0
67 134 0
-67 -134 0
55 25 0
-55 -25 0
56 4 0
-56 -4 0
130 19 0
-130 -19 0
104 52 0
-104 -52 0
48 54 0
-48 -54 0
67 39 0
-67 -39 0
128 28 0
-128 -28 0
35 110 0
-35 -110 0
35 31 0
-35 -31 0
107 88 0
-107 -88 0
52 137 0
-52 -137 0
20 52 0
-20 -52 0
59 5 0
-59 -5 0
114 19 0
-114 -19 0
37 4 0
-37 -4 0
126 107 0
-126 -107 0
48 121 0
-48 -121 0
27 19 0
-27 -19 0
94 8 0
-94 -8 0
139 137 0
-139 -137 0
99 60 0
-99 -60 0
111 134 0
-111 -134 0
44 117 0
-44 -117 0
136 36 0
-136 -36 0
68 112 0
-68 -112 0
44 32 0
-44 -32 0
103 4 0
-103 -4 0
130 103 0
-130 -103 0
28 36 0
-28 -36 0
2 71 0
-2 -71 0
8 1 0
-8 -1 0
105 13 0
-105 -13 0
128 56 0
-128 -56 0
120 17 0
-120 -17 0
122 82 0
-122 -82 0
94 38 0
-94 -38 0
81 38 0
-81 -38 0
33 46 0
-33 -46 0
44 88 0
-44 -88 0
11 128 0
-11 -128 0
11 22 0
-11 -22 0
120 46 0
-120 -46 0
7 27 0
-7 -27 0
74 18 0
-74 -18 0
21 18 0
-21 -18 0
124 134 0
-124 -134 0
110 51 0
-110 -51 0
56 63 0
-56 -63 0
106 55 0
-106 -55 0
115 99 0
-115 -99 0
35 49 0
-35 -49 0
97 127 0
-97 -127 0
32 41 0
-32 -41 0
35 96 0
-35 -96 0
140 138 0
-140 -138 0
2 88 0
-2 -88 0
108 69 0
-108 -69 0
68 6 0
-68 -6 0
23 64 0
-23 -64 0
128 4 0
-128 -4 0
118 6 0
-118 -6 0
91 121 0
-91 -121 0
46 4 0
-46 -4 0
133 96 0
-133 -96 0
75 55 0
-75 -55 0
128 84 0
-128 -84 0
105 140 0
-105 -140 0
125 136 0
-125 -136 0
125 21 0
-125 -21 0
101 34 0
-101 -34 0
29 46 0
-29 -46 0
105 37 0
-105 -37 0
133 67 0
-133 -67 0
63 139 0
-63 -139 0
111 118 0
-111 -118 0
10 129 0
-10 -129 0
138 20 0
-138 -20 0
63 113 0
-63 -113 0
34 65 0
-34 -65 0
128 82 0
-128 -82 0
17 103 0
-17 -103 0
71 10 0
-71 -10 0
111 2 0
-111 -2 0
126 51 0
-126 -51 0
105 100 0
-105 -100 0
45 72 0
-45 -72 0
139 109 0
-139 -109 0
133 85 0
-133 -85 0
17 24 0
-17 -24 0
136 20 0
-136 -20 0
138 137 0
-138 -137 0
84 25 0
-84 -25 0
68 65 0
-68 -65 0
103 21 0
-103 -21 0
97 50 0
-97 -50 0
58 12 0
-58 -12 0
44 111 0
-44 -111 0
122 64 0
-122 -64 0
133 134 0
-133 -134 0
34 56 0
-34 -56 0
139 60 0
-139 -60 0
63 124 0
-63 -124 0
125 54 0
-125 -54 0
53 90 0
-53 -90 0
18 137 0
-18 -137 0
47 131 0
-47 -131 0
106 101 0
-106 -101 0
93 102 0
-93 -102 0
80 50 0
-80 -50 0
95 138 0
-95 -138 0
59 100 0
-59 -100 0
134 60 0
-134 -60 0
139 78 0
-139 -78 0
37 96 0
-37 -96 0
50 55 0
-50 -55 0
20 129 0
-20 -129 0
77 62 0
-77 -62 0
59 29 0
-59 -29 0
44 78 0
-44 -78 0
128 41 0
-128 -41 0
94 28 0
-94 -28 0
30 32 0
-30 -32 0
79 22 0
-79 -22 0
29 88 0
-29 -88 0
132 124 0
-132 -124 0
95 65 0
-95 -65 0
140 3 0
-140 -3 0
17 51 0
-17 -51 0
83 75 0
-83 -75 0
28 114 0
-28 -114 0
57 123 0
-57 -123 0
81 117 0
-81 -117 0
53 43 0
-53 -43 0
11 78 0
-11 -78 0
84 109 0
-84 -109 0
27 78 0
-27 -78 0
38 55 0
-38 -55 0
57 16 0
-57 -16 0
1 131 0
-1 -131 0
108 129 0
-108 -129 0
110 50 0
-110 -50 0
3 60 0
-3 -60 0
58 77 0
-58 -77 0
11 97 0
-11 -97 0
71 31 0
-71 -31 0
107 117 0
-107 -117 0
54 118 0
-54 -118 0
64 96 0
-64 -96 0
64 60 0
-64 -60 0
71 78 0
-71 -78 0
6 4 0
-6 -4 0
47 60 0
-47 -60 0
108 24 0
-108 -24 0
104 38 0
-104 -38 0
25 19 0
-25 -19 0
11 124 0
-11 -124 0
44 122 0
-44 -122 0
53 17 0
-53 -17 0
139 50 0
-139 -50 0
74 16 0
-74 -16 0
97 69 0
-97 -69 0
34 118 0
-34 -118 0
95 102 0
-95 -102 0
26 55 0
-26 -55 0
88 36 0
-88 -36 0
